p edge 95 424
e 1 7
e 1 20
e 1 23
e 1 25
e 1 47
e 1 62
e 1 68
e 1 69
e 1 94
e 2 9
e 2 11
e 2 21
e 2 29
e 2 38
e 2 43
e 2 50
e 2 52
e 2 69
e 3 5
e 3 24
e 3 40
e 3 53
e 3 62
e 3 73
e 3 76
e 3 87
e 4 7
e 4 8
e 4 14
e 4 17
e 4 19
e 4 24
e 4 38
e 4 42
e 4 44
e 4 51
e 4 52
e 4 56
e 4 61
e 4 87
e 4 93
e 5 71
e 5 73
e 5 77
e 5 78
e 6 11
e 6 33
e 6 41
e 6 50
e 6 60
e 6 64
e 6 76
e 6 79
e 6 86
e 6 91
e 7 23
e 7 24
e 7 29
e 7 49
e 7 55
e 7 67
e 7 71
e 7 72
e 7 80
e 7 84
e 8 24
e 8 35
e 8 55
e 8 57
e 8 71
e 8 73
e 8 75
e 8 86
e 8 91
e 9 22
e 9 30
e 9 35
e 9 36
e 9 43
e 9 47
e 9 56
e 9 58
e 9 63
e 9 73
e 9 86
e 10 18
e 10 41
e 10 45
e 10 54
e 10 93
e 10 95
e 11 23
e 11 35
e 11 67
e 11 76
e 12 23
e 12 24
e 12 36
e 12 37
e 12 41
e 12 43
e 12 55
e 12 61
e 12 70
e 12 79
e 13 18
e 13 28
e 13 30
e 13 31
e 13 37
e 13 42
e 13 58
e 13 70
e 13 73
e 13 86
e 13 92
e 14 24
e 14 60
e 14 67
e 14 74
e 14 85
e 14 89
e 14 95
e 15 25
e 15 42
e 15 47
e 15 49
e 15 78
e 15 84
e 16 19
e 16 21
e 16 40
e 16 43
e 16 52
e 17 25
e 17 33
e 17 51
e 17 52
e 17 55
e 17 72
e 17 86
e 18 23
e 18 32
e 18 45
e 18 47
e 18 52
e 18 73
e 19 26
e 19 28
e 19 35
e 19 36
e 19 40
e 19 54
e 19 57
e 19 61
e 19 67
e 19 68
e 19 85
e 20 23
e 20 24
e 20 37
e 20 63
e 20 68
e 20 87
e 21 22
e 21 23
e 21 29
e 21 55
e 21 73
e 21 75
e 21 79
e 21 83
e 21 85
e 21 92
e 21 95
e 22 32
e 22 34
e 22 40
e 22 42
e 22 57
e 22 59
e 22 65
e 22 88
e 22 90
e 23 25
e 23 27
e 23 43
e 23 44
e 23 47
e 23 49
e 23 52
e 23 54
e 23 60
e 23 67
e 23 71
e 24 26
e 24 27
e 24 40
e 24 47
e 24 51
e 24 57
e 24 58
e 24 89
e 24 93
e 25 40
e 25 43
e 25 53
e 25 70
e 25 86
e 25 95
e 26 61
e 26 67
e 26 70
e 27 29
e 27 33
e 27 52
e 27 65
e 27 90
e 28 55
e 28 63
e 28 66
e 28 89
e 28 91
e 29 74
e 29 79
e 30 31
e 30 65
e 30 67
e 30 74
e 30 79
e 30 90
e 30 92
e 30 93
e 30 94
e 31 37
e 31 51
e 31 72
e 31 74
e 31 84
e 32 39
e 32 63
e 32 69
e 32 77
e 32 85
e 33 42
e 33 64
e 33 86
e 34 40
e 34 43
e 34 45
e 34 56
e 34 72
e 34 80
e 34 84
e 34 86
e 34 89
e 34 90
e 35 43
e 35 49
e 35 54
e 35 60
e 35 62
e 35 72
e 35 76
e 35 77
e 35 80
e 36 72
e 36 75
e 36 84
e 36 90
e 37 41
e 37 58
e 37 93
e 38 78
e 38 81
e 38 87
e 38 93
e 39 44
e 39 58
e 39 60
e 39 74
e 39 78
e 39 84
e 39 86
e 40 51
e 40 62
e 40 73
e 40 83
e 40 89
e 41 47
e 41 54
e 41 60
e 41 66
e 41 77
e 41 83
e 42 51
e 42 64
e 42 65
e 42 93
e 43 45
e 43 51
e 43 63
e 43 70
e 43 88
e 44 51
e 44 60
e 44 63
e 44 81
e 44 91
e 45 50
e 45 55
e 45 59
e 45 80
e 46 47
e 46 91
e 47 75
e 47 83
e 48 49
e 48 76
e 48 84
e 49 65
e 49 67
e 49 86
e 49 89
e 50 68
e 50 85
e 50 92
e 51 55
e 52 56
e 52 57
e 52 65
e 52 68
e 53 71
e 53 76
e 53 77
e 53 86
e 53 92
e 54 59
e 54 60
e 54 66
e 54 78
e 54 89
e 54 90
e 54 93
e 55 56
e 55 68
e 55 77
e 55 80
e 55 90
e 56 60
e 56 71
e 56 72
e 56 83
e 56 87
e 57 60
e 58 65
e 58 73
e 58 79
e 58 86
e 58 88
e 58 89
e 59 75
e 59 90
e 60 73
e 61 73
e 61 81
e 62 73
e 62 87
e 62 90
e 63 86
e 63 91
e 64 66
e 64 68
e 64 69
e 64 70
e 64 91
e 65 66
e 65 68
e 65 76
e 65 79
e 65 85
e 66 77
e 66 80
e 66 87
e 66 93
e 67 83
e 67 84
e 68 78
e 68 79
e 68 83
e 69 70
e 70 71
e 70 77
e 70 78
e 71 86
e 71 92
e 72 82
e 72 91
e 72 94
e 73 86
e 73 92
e 74 79
e 74 84
e 75 83
e 75 85
e 76 77
e 76 90
e 76 92
e 77 81
e 77 82
e 77 85
e 79 81
e 79 88
e 79 89
e 80 84
e 82 84
e 83 85
e 83 86
e 83 89
e 84 88
e 88 91
e 89 94
e 90 92
e 93 94
